Features/ForMiniZinc/benchmark_puzzles/benchmarks5x5/60/puzzle5.dzn
S = 5;
start = [|2,0,24,14,0,5,0,0,0,0,20,0,0,18,16,0,0,19,6,23,0,8,0,22,0|
0,25,3,0,0,22,0,2,1,0,10,6,0,0,0,0,0,0,4,0,0,0,0,0,0|
0,0,0,0,4,0,0,25,0,6,0,0,1,0,19,18,0,0,0,0,0,15,2,16,20|
0,15,0,0,0,0,4,0,0,0,0,12,0,0,0,0,0,0,0,22,5,0,9,0,0|
0,20,0,0,22,23,0,15,19,14,25,0,2,0,0,10,0,0,0,0,0,0,11,0,0|
0,0,0,0,13,14,17,21,2,12,8,19,0,0,0,0,0,11,1,0,0,0,0,0,23|
7,0,2,10,11,0,0,0,18,0,0,0,0,16,0,0,0,25,0,24,0,19,0,0,5|
0,0,0,23,24,4,15,3,5,0,0,21,0,7,22,0,10,0,0,0,0,0,0,0,13|
0,19,17,0,18,0,0,0,0,0,0,0,0,0,0,0,0,0,0,0,14,0,1,8,0|
0,0,4,25,0,8,1,16,24,11,13,5,0,2,0,22,0,14,0,0,7,17,10,0,15|
22,12,0,13,9,15,0,11,10,0,7,0,3,21,0,19,5,0,0,0,25,0,0,23,0|
4,0,0,0,6,0,0,0,0,0,0,0,0,19,15,12,23,0,21,3,24,13,0,7,0|
17,21,0,0,0,0,0,6,0,0,0,23,0,0,0,0,0,0,0,4,0,20,5,1,0|
0,0,0,8,0,0,0,0,21,7,0,20,0,0,0,0,0,13,11,0,22,0,0,0,0|
0,7,0,0,0,12,0,0,0,0,5,0,4,22,0,20,0,6,2,14,21,0,17,0,9|
25,0,0,0,2,0,0,0,8,0,6,10,5,0,3,0,11,0,7,0,0,0,0,14,22|
15,0,7,6,0,25,10,0,13,0,0,0,0,0,0,0,0,2,0,0,20,0,0,5,18|
10,24,22,3,1,20,0,0,15,0,0,8,0,13,0,0,18,17,12,0,0,16,25,0,19|
0,9,12,0,0,6,11,0,7,0,0,0,23,1,0,0,0,0,0,10,4,21,13,0,0|
0,13,0,17,8,0,0,0,0,0,0,0,0,4,20,0,0,0,0,21,10,1,7,15,0|
13,0,0,12,0,11,0,10,0,0,0,18,0,0,0,0,0,0,0,20,0,5,16,0,0|
24,0,0,0,0,0,0,0,0,0,0,0,0,0,0,0,19,15,0,25,11,23,0,0,0|
8,0,0,21,15,7,0,0,23,13,0,0,0,3,0,2,0,0,0,12,9,0,0,0,14|
0,0,20,0,7,0,0,0,0,0,23,2,0,14,24,0,0,10,5,11,0,0,0,21,12|
5,0,11,0,10,18,19,0,0,0,16,0,8,20,13,24,21,9,0,1,0,7,15,0,4|];